80 200
9 1
1 7
1 3
12 4
11 2
14 3
4 5
12 7
9 1
10 1
12 6
5 7
2 1
7 7
6 1
8 4
1 3
11 6
9 4
10 1
13 5
13 4
7 3
7 3
8 1
6 5
6 6
11 5
7 3
6 1
4 4
3 1
14 5
14 2
13 5
10 3
11 5
10 7
13 4
7 4
4 1
12 6
13 5
5 1
7 3
13 2
9 6
14 7
12 5
8 7
13 2
3 6
11 4
7 6
1 1
14 6
8 1
9 3
7 3
10 4
2 5
5 1
5 5
2 2
9 5
14 2
7 1
14 6
4 2
4 2
14 2
9 4
13 2
8 2
6 1
14 7
3 3
4 6
12 1
4 6
